min: 11*y_11 + 10*y_10 + 7*y_7;

y_11 - x11_0_1_1 - x11_0_2_2 - x11_0_3_3 - x11_0_4_4 - x11_0_5_5 = 0;
x11_0_1_1 - x11_1_2_1 - x11_1_3_2 - x11_1_4_3 - x11_1_5_4 - x11_1_6_5 - x11_1_11 = 0;
x11_0_2_2 + x11_1_2_1 - x11_2_3_1 - x11_2_4_2 - x11_2_5_3 - x11_2_6_4 - x11_2_7_5 - x11_2_11 = 0;
x11_0_3_3 + x11_1_3_2 + x11_2_3_1 - x11_3_4_1 - x11_3_5_2 - x11_3_6_3 - x11_3_7_4 - x11_3_8_5 - x11_3_11 = 0;
x11_0_4_4 + x11_1_4_3 + x11_2_4_2 + x11_3_4_1 - x11_4_5_1 - x11_4_6_2 - x11_4_7_3 - x11_4_8_4 - x11_4_9_5 - x11_4_11 = 0;
x11_0_5_5 + x11_1_5_4 + x11_2_5_3 + x11_3_5_2 + x11_4_5_1 - x11_5_6_1 - x11_5_7_2 - x11_5_8_3 - x11_5_9_4 - x11_5_10_5 - x11_5_11 = 0;
x11_1_6_5 + x11_2_6_4 + x11_3_6_3 + x11_4_6_2 + x11_5_6_1 - x11_6_7_1 - x11_6_8_2 - x11_6_9_3 - x11_6_10_4 - x11_6_11 = 0;
x11_2_7_5 + x11_3_7_4 + x11_4_7_3 + x11_5_7_2 + x11_6_7_1 - x11_7_8_1 - x11_7_9_2 - x11_7_10_3 - x11_7_11_4 - x11_7_11 = 0;
x11_3_8_5 + x11_4_8_4 + x11_5_8_3 + x11_6_8_2 + x11_7_8_1 - x11_8_9_1 - x11_8_10_2 - x11_8_11_3 - x11_8_11 = 0;
x11_4_9_5 + x11_5_9_4 + x11_6_9_3 + x11_7_9_2 + x11_8_9_1 - x11_9_10_1 - x11_9_11_2 - x11_9_11 = 0;
x11_5_10_5 + x11_6_10_4 + x11_7_10_3 + x11_8_10_2 + x11_9_10_1 - x11_10_11_1 - x11_10_11 = 0;
x11_1_11 + x11_2_11 + x11_3_11 + x11_4_11 + x11_5_11 + x11_6_11 + x11_7_11 + x11_8_11 + x11_9_11 + x11_10_11 +
x11_7_11_4 + x11_8_11_3 + x11_9_11_2 + x11_10_11_1 = y_11;

y_10 - x10_0_1_1 - x10_0_2_2 - x10_0_3_3 - x10_0_4_4 - x10_0_5_5 = 0;
x10_0_1_1 - x10_1_2_1 - x10_1_3_2 - x10_1_4_3 - x10_1_5_4 - x10_1_6_5 - x10_1_10 = 0;
x10_0_2_2 + x10_1_2_1 - x10_2_3_1 - x10_2_4_2 - x10_2_5_3 - x10_2_6_4 - x10_2_7_5 - x10_2_10 = 0;
x10_0_3_3 + x10_1_3_2 + x10_2_3_1 - x10_3_4_1 - x10_3_5_2 - x10_3_6_3 - x10_3_7_4 - x10_3_8_5 - x10_3_10 = 0;
x10_0_4_4 + x10_1_4_3 + x10_2_4_2 + x10_3_4_1 - x10_4_5_1 - x10_4_6_2 - x10_4_7_3 - x10_4_8_4 - x10_4_9_5 - x10_4_10 = 0;
x10_0_5_5 + x10_1_5_4 + x10_2_5_3 + x10_3_5_2 + x10_4_5_1 - x10_5_6_1 - x10_5_7_2 - x10_5_8_3 - x10_5_9_4 - x10_5_10_5 - x10_5_10 = 0;
x10_1_6_5 + x10_2_6_4 + x10_3_6_3 + x10_4_6_2 + x10_5_6_1 - x10_6_7_1 - x10_6_8_2 - x10_6_9_3 - x10_6_10_4 - x10_6_10 = 0;
x10_2_7_5 + x10_3_7_4 + x10_4_7_3 + x10_5_7_2 + x10_6_7_1 - x10_7_8_1 - x10_7_9_2 - x10_7_10_3 - x10_7_10 = 0;
x10_3_8_5 + x10_4_8_4 + x10_5_8_3 + x10_6_8_2 + x10_7_8_1 - x10_8_9_1 - x10_8_10_2 - x10_8_10 = 0;
x10_4_9_5 + x10_5_9_4 + x10_6_9_3 + x10_7_9_2 + x10_8_9_1 - x10_9_10_1 - x10_9_10 = 0;
x10_1_10 + x10_2_10 + x10_3_10 + x10_4_10 + x10_5_10 + x10_6_10 + x10_7_10 + x10_8_10 + x10_9_10 +
x10_5_10_5 + x10_6_10_4 + x10_7_10_3 + x10_8_10_2 + x10_9_10_1 = y_10;


y_7 - x7_0_1_1 - x7_0_2_2 - x7_0_3_3 - x7_0_4_4 - x7_0_5_5 = 0;
x7_0_1_1 - x7_1_2_1 - x7_1_3_2 - x7_1_4_3 - x7_1_5_4 - x7_1_6_5 - x7_1_7 = 0;
x7_0_2_2 + x7_1_2_1 - x7_2_3_1 - x7_2_4_2 - x7_2_5_3 - x7_2_6_4 - x7_2_7_5 - x7_2_7 = 0;
x7_0_3_3 + x7_1_3_2 + x7_2_3_1 - x7_3_4_1 - x7_3_5_2 - x7_3_6_3 - x7_3_7_4 - x7_3_7 = 0;
x7_0_4_4 + x7_1_4_3 + x7_2_4_2 + x7_3_4_1 - x7_4_5_1 - x7_4_6_2 - x7_4_7_3 - x7_4_7 = 0;
x7_0_5_5 + x7_1_5_4 + x7_2_5_3 + x7_3_5_2 + x7_4_5_1 - x7_5_6_1 - x7_5_7_2 - x7_5_7 = 0;
x7_1_6_5 + x7_2_6_4 + x7_3_6_3 + x7_4_6_2 + x7_5_6_1 - x7_6_7_1 - x7_6_7 = 0;
x7_1_7 + x7_2_7 + x7_3_7 + x7_4_7 + x7_5_7 + x7_6_7 +
x7_2_7_5 + x7_3_7_4 + x7_4_7_3 + x7_5_7_2 + x7_6_7_1 = y_7;

x11_0_1_1 + x11_1_2_1 + x11_2_3_1 + x11_3_4_1 + x11_4_5_1 + x11_5_6_1 + x11_6_7_1 + x11_7_8_1 + x11_8_9_1 + x11_9_10_1 + x11_10_11_1 +
x10_0_1_1 + x10_1_2_1 + x10_2_3_1 + x10_3_4_1 + x10_4_5_1 + x10_5_6_1 + x10_6_7_1 + x10_7_8_1 + x10_8_9_1 + x10_9_10_1 +
x7_0_1_1 + x7_1_2_1 + x7_2_3_1 + x7_3_4_1 + x7_4_5_1 + x7_5_6_1 + x7_6_7_1 = 2;

x11_0_2_2 + x11_1_3_2 + x11_3_5_2 + x11_4_6_2 + x11_5_7_2 + x11_6_8_2 + x11_7_9_2 + x11_8_10_2 + x11_9_11_2 +
x10_0_2_2 + x10_1_3_2 + x10_3_5_2 + x10_4_6_2 + x10_5_7_2 + x10_6_8_2 + x10_7_9_2 + x10_8_10_2 +
x7_0_2_2 + x7_1_3_2 + x7_3_5_2 + x7_4_6_2 + x7_5_7_2 = 11;

x11_0_3_3 + x11_1_4_3 + x11_2_5_3 + x11_3_6_3 + x11_4_7_3 + x11_5_8_3 + x11_6_9_3 + x11_7_10_3 + x11_8_11_3 +
x10_0_3_3 + x10_1_4_3 + x10_2_5_3 + x10_3_6_3 + x10_4_7_3 + x10_5_8_3 + x10_6_9_3 + x10_7_10_3 +
x7_0_3_3 + x7_1_4_3 + x7_2_5_3 + x7_3_6_3 + x7_4_7_3 = 10;

x11_0_4_4 + x11_1_5_4 + x11_2_6_4 + x11_3_7_4 + x11_4_8_4 + x11_5_9_4 + x11_6_10_4 + x11_7_11_4 +
x10_0_4_4 + x10_1_5_4 + x10_2_6_4 + x10_3_7_4 + x10_4_8_4 + x10_5_9_4 + x10_6_10_4 +
x7_0_4_4 + x7_1_5_4 + x7_2_6_4 + x7_3_7_4 = 15;

x11_0_5_5 + x11_1_6_5 + x11_2_7_5 + x11_3_8_5 + x11_4_9_5 + x11_5_10_5 +
x10_0_5_5 + x10_1_6_5 + x10_2_7_5 + x10_3_8_5 + x10_4_9_5 + x10_5_10_5 +
x7_0_5_5 + x7_1_6_5 + x7_2_7_5 = 5;

y_11 >= 0;
y_10 >= 0;
y_10 <= 8;
y_7 >= 0;
y_7 <= 4;

int x11_0_1_1, x11_0_2_2, x11_0_3_3, x11_0_4_4, x11_0_5_5;
int x11_1_2_1, x11_1_3_2, x11_1_4_3, x11_1_5_4, x11_1_6_5, x11_1_11;
int x11_2_3_1, x11_2_4_2, x11_2_5_3, x11_2_6_4, x11_2_7_5, x11_2_11;
int x11_3_4_1, x11_3_5_2, x11_3_6_3, x11_3_7_4, x11_3_8_5, x11_3_11;
int x11_4_5_1, x11_4_6_2, x11_4_7_3, x11_4_8_4, x11_4_9_5, x11_4_11;
int x11_5_6_1, x11_5_7_2, x11_5_8_3, x11_5_9_4, x11_5_10_5, x11_5_11;
int x11_6_7_1, x11_6_8_2, x11_6_9_3, x11_6_10_4, x11_6_11;
int x11_7_8_1, x11_7_9_2, x11_7_10_3, x11_7_11_4, x11_7_11;
int x11_8_9_1, x11_8_10_2, x11_8_11_3, x11_8_11;
int x11_9_10_1, x11_9_11_2, x11_9_11;
int x11_10_11_1, x11_10_11;

int x10_0_1_1, x10_0_2_2, x10_0_3_3, x10_0_4_4, x10_0_5_5;
int x10_1_2_1, x10_1_3_2, x10_1_4_3, x10_1_5_4, x10_1_6_5, x10_1_10;
int x10_2_3_1, x10_2_4_2, x10_2_5_3, x10_2_6_4, x10_2_7_5, x10_2_10;
int x10_3_4_1, x10_3_5_2, x10_3_6_3, x10_3_7_4, x10_3_8_5, x10_3_10;
int x10_4_5_1, x10_4_6_2, x10_4_7_3, x10_4_8_4, x10_4_9_5, x10_4_10;
int x10_5_6_1, x10_5_7_2, x10_5_8_3, x10_5_9_4, x10_5_10_5, x10_5_10;
int x10_6_7_1, x10_6_8_2, x10_6_9_3, x10_6_10_4, x10_6_10;
int x10_7_8_1, x10_7_9_2, x10_7_10_3, x10_7_10;
int x10_8_9_1, x10_8_10_2, x10_8_10;
int x10_9_10_1, x10_9_10;

int x7_0_1_1, x7_0_2_2, x7_0_3_3, x7_0_4_4, x7_0_5_5;
int x7_1_2_1, x7_1_3_2, x7_1_4_3, x7_1_5_4, x7_1_6_5, x7_1_7;
int x7_2_3_1, x7_2_4_2, x7_2_5_3, x7_2_6_4, x7_2_7_5, x7_2_7;
int x7_3_4_1, x7_3_5_2, x7_3_6_3, x7_3_7_4, x7_3_7;
int x7_4_5_1, x7_4_6_2, x7_4_7_3, x7_4_7;
int x7_5_6_1, x7_5_7_2, x7_5_7;
int x7_6_7_1, x7_6_7;

int y_11, y_10, y_7;